
Gurobi 11.0.1 (win64) logging started Tue May 14 15:50:16 2024

Set parameter LogFile to value "output/solver_log5.txt"
Gurobi Optimizer version 11.0.1 build v11.0.1rc0 (win64 - Windows 11.0 (22631.2))

CPU model: 11th Gen Intel(R) Core(TM) i7-1165G7 @ 2.80GHz, instruction set [SSE2|AVX|AVX2|AVX512]
Thread count: 4 physical cores, 8 logical processors, using up to 8 threads

Optimize a model with 2137 rows, 386 columns and 39420 nonzeros
Model fingerprint: 0xc839e24d
Variable types: 248 continuous, 138 integer (138 binary)
Coefficient statistics:
  Matrix range     [4e-01, 1e+05]
  Objective range  [1e+00, 1e+02]
  Bounds range     [1e+00, 1e+00]
  RHS range        [1e-02, 1e+05]

User MIP start produced solution with objective 39654.8 (0.00s)
User MIP start produced solution with objective 39654.8 (0.01s)
Loaded user MIP start with objective 39654.8

Presolve removed 101 rows and 99 columns
Presolve time: 0.04s
Presolved: 2036 rows, 287 columns, 38782 nonzeros
Variable types: 231 continuous, 56 integer (56 binary)

Root relaxation: objective 4.098103e+04, 522 iterations, 0.03 seconds (0.06 work units)

    Nodes    |    Current Node    |     Objective Bounds      |     Work
 Expl Unexpl |  Obj  Depth IntInf | Incumbent    BestBd   Gap | It/Node Time

     0     0 40981.0277    0   12 39654.7988 40981.0277  3.34%     -    0s
     0     0 40826.9352    0   12 39654.7988 40826.9352  2.96%     -    0s
     0     0 39821.6180    0   13 39654.7988 39821.6180  0.42%     -    0s
     0     0 39780.7727    0    9 39654.7988 39780.7727  0.32%     -    0s
     0     0 39752.6688    0   10 39654.7988 39752.6688  0.25%     -    0s
     0     0 39752.6688    0    8 39654.7988 39752.6688  0.25%     -    0s
H    0     0                    39655.128650 39752.6688  0.25%     -    0s

Cutting planes:
  Gomory: 3
  Implied bound: 4
  MIR: 12
  Relax-and-lift: 3

Explored 1 nodes (1225 simplex iterations) in 0.41 seconds (0.50 work units)
Thread count was 8 (of 8 available processors)

Solution count 3: 39655.1 39655.1 39654.8 

Optimal solution found (tolerance 1.00e-04)
Best objective 3.965512865041e+04, best bound 3.965512865041e+04, gap 0.0000%
